c Generated tree graph
p edge 862 861
e 1 142
e 1 795
e 1 829
e 1 860
e 2 329
e 2 586
e 2 630
e 3 416
e 3 447
e 4 647
e 5 290
e 6 670
e 7 330
e 8 839
e 9 277
e 9 748
e 10 626
e 11 355
e 11 568
e 12 603
e 13 72
e 13 791
e 14 715
e 15 620
e 16 347
e 17 26
e 18 183
e 18 445
e 18 747
e 19 441
e 19 623
e 20 419
e 21 238
e 21 577
e 21 642
e 22 228
e 23 199
e 24 443
e 25 421
e 26 192
e 27 746
e 28 287
e 29 192
e 29 476
e 30 63
e 30 434
e 30 489
e 31 64
e 32 324
e 33 364
e 33 429
e 33 604
e 34 274
e 34 388
e 34 558
e 34 853
e 35 214
e 35 801
e 36 258
e 37 249
e 37 414
e 37 468
e 38 224
e 38 275
e 38 530
e 38 534
e 38 859
e 39 386
e 39 818
e 40 598
e 40 810
e 41 185
e 42 315
e 42 424
e 43 721
e 44 827
e 45 67
e 45 798
e 46 232
e 46 359
e 46 659
e 47 851
e 48 73
e 49 647
e 49 827
e 50 162
e 50 411
e 50 521
e 51 268
e 52 158
e 52 681
e 52 840
e 53 764
e 54 142
e 54 251
e 55 571
e 55 636
e 55 676
e 56 359
e 57 265
e 58 380
e 59 97
e 59 539
e 60 587
e 61 330
e 61 632
e 62 418
e 63 841
e 64 419
e 65 197
e 65 811
e 66 694
e 66 766
e 68 337
e 69 279
e 69 438
e 69 507
e 69 764
e 70 235
e 70 281
e 70 286
e 70 391
e 70 557
e 71 144
e 71 262
e 72 191
e 72 763
e 73 572
e 74 270
e 74 288
e 75 413
e 76 349
e 76 820
e 77 509
e 78 319
e 79 557
e 79 627
e 79 696
e 80 595
e 80 753
e 81 541
e 81 623
e 82 542
e 82 800
e 83 716
e 84 135
e 84 356
e 84 548
e 84 691
e 84 811
e 85 133
e 85 559
e 85 594
e 85 643
e 85 726
e 86 498
e 86 589
e 87 162
e 87 310
e 87 630
e 88 117
e 88 293
e 89 528
e 90 665
e 90 675
e 91 452
e 92 271
e 93 269
e 93 372
e 93 700
e 94 124
e 94 566
e 95 240
e 95 590
e 95 629
e 96 495
e 96 533
e 97 197
e 97 506
e 98 434
e 98 513
e 99 380
e 100 336
e 100 421
e 100 499
e 100 534
e 100 628
e 100 770
e 101 694
e 102 339
e 102 836
e 103 348
e 104 572
e 105 803
e 106 171
e 106 616
e 106 714
e 106 819
e 107 122
e 107 251
e 108 403
e 109 385
e 109 851
e 110 229
e 110 315
e 110 624
e 111 133
e 111 846
e 111 854
e 112 193
e 112 453
e 112 643
e 113 494
e 114 463
e 115 406
e 116 336
e 117 195
e 117 338
e 118 316
e 118 799
e 119 429
e 120 227
e 121 655
e 122 658
e 123 531
e 123 862
e 125 279
e 125 432
e 125 444
e 125 794
e 126 433
e 126 501
e 126 637
e 127 233
e 127 281
e 128 258
e 128 307
e 129 161
e 129 606
e 129 732
e 130 260
e 131 366
e 132 446
e 134 447
e 135 619
e 135 796
e 135 810
e 136 473
e 136 745
e 137 241
e 137 382
e 138 855
e 139 170
e 139 696
e 140 720
e 140 839
e 141 463
e 143 302
e 144 274
e 144 312
e 145 497
e 145 690
e 146 176
e 146 732
e 147 184
e 147 565
e 148 454
e 148 719
e 149 392
e 150 654
e 150 701
e 151 252
e 151 731
e 151 817
e 152 346
e 152 466
e 152 728
e 153 603
e 153 766
e 153 829
e 154 433
e 155 458
e 156 179
e 156 207
e 156 220
e 156 326
e 156 643
e 157 540
e 159 544
e 159 755
e 159 788
e 160 183
e 160 302
e 161 621
e 163 815
e 164 638
e 165 513
e 166 494
e 166 515
e 166 735
e 167 655
e 167 861
e 168 415
e 169 213
e 169 513
e 169 762
e 170 458
e 171 203
e 171 295
e 171 798
e 172 189
e 172 454
e 173 480
e 173 531
e 174 602
e 175 217
e 175 689
e 176 282
e 177 598
e 178 374
e 178 698
e 179 369
e 179 680
e 179 690
e 180 461
e 181 557
e 181 834
e 182 489
e 182 678
e 184 265
e 184 334
e 185 277
e 185 602
e 185 707
e 186 596
e 186 647
e 187 679
e 188 633
e 190 428
e 190 554
e 190 653
e 190 785
e 191 600
e 192 708
e 193 324
e 193 420
e 193 613
e 194 845
e 195 396
e 195 575
e 196 304
e 196 827
e 197 283
e 197 380
e 197 573
e 197 740
e 198 558
e 199 294
e 199 773
e 199 780
e 200 851
e 201 751
e 202 524
e 203 560
e 204 314
e 205 428
e 205 800
e 205 830
e 206 221
e 206 623
e 208 754
e 209 376
e 210 609
e 211 747
e 211 828
e 212 690
e 213 663
e 213 779
e 214 368
e 215 629
e 216 834
e 217 343
e 217 492
e 217 823
e 218 740
e 219 711
e 219 749
e 222 284
e 222 376
e 222 379
e 222 439
e 222 670
e 223 803
e 224 685
e 225 587
e 226 586
e 226 642
e 227 331
e 228 429
e 229 389
e 230 638
e 230 788
e 231 855
e 232 597
e 232 663
e 233 516
e 234 341
e 236 449
e 236 797
e 237 370
e 238 625
e 238 786
e 239 696
e 242 781
e 242 824
e 243 431
e 243 717
e 244 330
e 244 580
e 245 670
e 246 555
e 246 858
e 247 770
e 248 608
e 249 639
e 250 804
e 252 836
e 253 415
e 254 522
e 254 712
e 255 580
e 256 451
e 257 311
e 258 805
e 259 686
e 260 346
e 261 270
e 261 371
e 263 339
e 264 585
e 265 745
e 265 822
e 266 464
e 267 289
e 267 502
e 268 301
e 268 510
e 268 663
e 269 789
e 269 810
e 269 814
e 269 833
e 271 560
e 271 791
e 271 818
e 272 408
e 273 370
e 273 371
e 275 554
e 275 741
e 276 378
e 276 703
e 277 664
e 278 384
e 278 660
e 278 758
e 279 703
e 280 531
e 284 319
e 284 443
e 284 697
e 285 578
e 285 704
e 287 539
e 289 374
e 289 474
e 289 754
e 290 761
e 291 472
e 292 299
e 292 740
e 295 775
e 296 741
e 297 525
e 297 546
e 298 471
e 298 505
e 298 650
e 298 834
e 300 669
e 300 702
e 301 436
e 301 579
e 301 609
e 303 453
e 303 733
e 304 486
e 304 688
e 305 860
e 306 817
e 307 574
e 307 810
e 308 547
e 309 517
e 311 718
e 312 508
e 312 519
e 312 655
e 312 788
e 313 378
e 313 646
e 313 723
e 314 362
e 315 725
e 316 348
e 316 576
e 317 612
e 318 797
e 319 342
e 319 469
e 320 492
e 320 611
e 321 558
e 322 456
e 322 776
e 323 600
e 324 405
e 324 631
e 325 548
e 327 656
e 327 773
e 328 584
e 330 362
e 330 363
e 331 500
e 331 844
e 332 374
e 332 485
e 332 517
e 332 837
e 333 734
e 335 392
e 335 608
e 336 450
e 337 813
e 337 833
e 338 639
e 339 387
e 339 674
e 340 537
e 341 439
e 344 408
e 344 567
e 344 859
e 345 471
e 345 549
e 346 375
e 347 515
e 347 613
e 348 831
e 349 635
e 350 590
e 350 605
e 350 622
e 351 645
e 352 448
e 352 752
e 353 694
e 354 456
e 354 545
e 354 612
e 354 708
e 355 705
e 357 600
e 357 760
e 358 695
e 360 851
e 361 572
e 362 412
e 363 687
e 364 651
e 365 673
e 366 434
e 367 723
e 368 464
e 368 480
e 370 601
e 371 388
e 372 682
e 373 483
e 373 615
e 374 382
e 374 803
e 375 686
e 376 532
e 377 415
e 377 705
e 377 772
e 381 498
e 383 450
e 384 526
e 384 822
e 386 628
e 386 705
e 390 496
e 393 550
e 394 395
e 394 489
e 397 440
e 397 677
e 398 433
e 398 466
e 399 604
e 400 807
e 401 734
e 401 751
e 402 422
e 402 790
e 403 815
e 403 855
e 404 512
e 404 542
e 406 472
e 407 856
e 408 752
e 408 778
e 408 784
e 409 509
e 410 465
e 410 729
e 413 467
e 413 642
e 416 475
e 416 560
e 417 862
e 418 557
e 419 457
e 423 827
e 424 577
e 425 735
e 426 744
e 426 776
e 427 813
e 429 719
e 429 724
e 430 527
e 431 821
e 435 767
e 436 839
e 437 625
e 438 669
e 438 832
e 439 792
e 439 844
e 440 457
e 440 730
e 441 491
e 442 759
e 442 799
e 446 765
e 447 849
e 449 679
e 451 683
e 451 845
e 452 735
e 455 548
e 457 798
e 459 803
e 460 611
e 461 482
e 462 857
e 463 504
e 463 747
e 464 470
e 465 848
e 467 857
e 468 747
e 469 528
e 469 632
e 469 650
e 471 533
e 471 826
e 472 614
e 472 635
e 472 767
e 472 806
e 477 755
e 478 649
e 479 798
e 481 511
e 481 844
e 482 683
e 483 542
e 484 526
e 486 652
e 487 625
e 488 794
e 490 765
e 491 536
e 491 553
e 492 610
e 492 654
e 492 753
e 493 550
e 496 660
e 499 756
e 499 815
e 501 737
e 503 648
e 503 657
e 507 645
e 507 776
e 509 526
e 509 584
e 510 664
e 512 541
e 513 566
e 514 611
e 515 529
e 518 691
e 520 538
e 520 658
e 522 774
e 523 686
e 524 721
e 525 680
e 526 585
e 527 547
e 527 682
e 532 554
e 533 589
e 534 852
e 535 630
e 537 557
e 540 668
e 542 737
e 543 646
e 544 693
e 546 777
e 549 622
e 550 664
e 550 731
e 551 713
e 552 782
e 553 856
e 554 579
e 554 722
e 555 716
e 556 695
e 556 754
e 561 691
e 562 856
e 563 588
e 564 667
e 565 649
e 565 699
e 567 835
e 568 724
e 569 608
e 569 731
e 570 823
e 571 617
e 571 746
e 572 788
e 574 849
e 578 769
e 578 785
e 581 751
e 582 759
e 583 595
e 584 807
e 587 671
e 587 774
e 588 703
e 591 840
e 592 642
e 592 662
e 592 668
e 593 650
e 595 820
e 596 838
e 599 799
e 607 747
e 608 804
e 615 634
e 616 750
e 618 761
e 618 783
e 618 816
e 620 656
e 621 857
e 626 820
e 631 862
e 633 725
e 637 721
e 639 813
e 640 696
e 641 717
e 641 792
e 643 656
e 644 665
e 646 765
e 653 727
e 654 679
e 656 683
e 657 829
e 660 679
e 660 787
e 661 735
e 664 680
e 665 781
e 665 794
e 665 830
e 666 681
e 667 817
e 669 858
e 672 854
e 673 743
e 673 818
e 678 751
e 680 684
e 688 816
e 688 828
e 689 692
e 692 730
e 693 712
e 695 814
e 698 715
e 699 738
e 699 850
e 705 746
e 706 746
e 709 802
e 710 782
e 711 785
e 713 762
e 718 732
e 729 799
e 736 803
e 738 742
e 739 793
e 744 809
e 744 825
e 746 771
e 752 757
e 754 853
e 759 793
e 759 839
e 761 782
e 768 818
e 786 827
e 790 836
e 790 860
e 793 802
e 801 808
e 812 862
e 817 842
e 817 843
e 817 851
e 829 840
e 847 857
